500
[100,101,102,104,105,106,107,108,109,110,111,112,113,114,115,116,117,118,119,120,121,122,124,125,126,127,128,129,130,131,133,134,135,136,137,139,140,141,142,143,144,146,147,148,149,150,151,152,154,156,157,158,159,160,161,162,163,166,167,168,169,170,172,173,175,176,177,178,179,181,182,183,184,185,186,187,188,190,192,193,194,195,196,197,198,199,200,201,202,203,205,207,208,210,211,212,213,215,216,217,218,219,222,223,225,226,227,232,233,234,238,239,240,242,243,244,246,247,248,250,251,252,253,254,255,256,257,258,259,260,262,263,264,265,267,268,270,271,274,275,276,277,278,279,280,282,283,284,285,286,287,288,291,292,293,294,295,296,297,298,299,301,303,306,307,308,309,310,311,313,314,315,318,319,320,322,323,326,327,328,330,331,332,333,334,335,336,337,338,339,340,341,342,343,344,345,346,347,348,349,350,351,352,353,354,355,356,358,359,360,361,363,365,367,368,369,370,372,373,374,375,376,377,378,379,380,382,383,384,385,386,388,389,390,391,392,393,394,395,396,397,399]
[3,2,4,1,3,1,2,1,3,1,1,1,2,4,3,2,2,1,2,3,2,4,3,4,2,2,1,3,1,3,2,1,3,2,2,2,1,2,1,1,1,2,1,2,1,2,2,2,2,2,3,1,4,1,1,1,1,1,3,1,2,2,1,1,3,2,1,1,1,3,2,2,1,2,1,2,1,2,1,1,2,3,1,3,2,1,4,3,4,1,1,1,1,1,3,1,1,4,2,2,1,2,3,2,3,3,1,2,1,1,1,2,1,2,1,2,4,3,2,3,3,2,2,1,2,2,1,1,2,3,1,2,2,1,2,2,4,5,2,2,2,1,3,4,2,3,4,1,3,1,1,4,1,2,3,1,2,3,3,3,3,1,1,1,3,3,2,5,1,1,4,3,1,1,2,6,1,2,2,1,5,1,1,1,2,3,4,2,2,1,1,3,1,2,4,4,1,2,2,4,2,6,1,2,1,3,1,1,2,1,7,1,1,4,1,1,1,2,4,3,1,4,3,1,3,1,3,2,3,3,3,2,1,1,1,2,1,1,4,1,1,3]
